100 10
672 644
451 515
404 703
291 698
134 538
628 317
332 622
751 802
546 523
536 723
347 655
118 447
724 480
367 381
292 307
374 692
462 699
711 314
454 305
205 808
803 355
432 402
624 519
419 513
697 504
619 508
304 169
766 491
152 409
412 448
536 466
639 485
407 728
675 321
541 502
358 312
251 655
469 359
489 262
535 334
345 435
754 382
616 797
99 379
267 609
174 755
641 299
281 863
558 610
415 417
659 262
488 614
591 357
400 672
558 478
452 716
270 587
475 338
685 516
599 521
653 570
320 374
417 369
346 500
392 785
186 201
756 388
762 807
504 485
378 573
544 583
433 508
755 280
687 602
512 737
874 444
889 327
634 220
248 652
544 400
938 752
834 404
413 612
232 455
167 399
447 424
521 431
299 244
302 449
276 533
686 744
492 527
612 353
321 376
603 417
319 692
808 377
549 238
607 181
308 113
